node_cpu = array1d(1..3,[922, 530, 813]);
node_memory = array1d(1..3,[1662, 1691, 1013]);
process_memory = array1d(1..6,[215, 303, 308, 270, 75, 284]);
process_links = array2d(1..6,1..6,[false, false, false, true, false, false, false, true, true, true, false, true, false, false, false, true, true, true, true, false, true, true, false, false, false, true, true, false, false, true, false, false, true, false, true, false]);
topology = array2d(1..3,1..3,[true, false, true, false, false, false, true, false, false]);
num_processes = 6;
num_nodes = 3;
process_load = array1d(1..6,[324, 205, 357, 600, 204, 138]);
